NAME: d198
COMMENT: Local search tour for d198 (17998.633904658942)
TYPE: TOUR
DIMENSION: 198
TOUR_SECTION: 1 2 7 6 3 4 5 8 9 10 11 12 13 41 40 15 14 29 28 30 32 31 38 37 36 33 34 39 47 52 46 53 62 45 54 61 67 60 59 56 55 44 43 42 57 58 69 71 85 86 100 99 87 84 72 68 73 70 66 74 83 88 98 97 89 82 75 65 51 50 49 63 79 92 91 80 78 64 77 76 81 90 96 95 94 93 101 102 103 104 105 114 113 112 106 107 111 110 108 109 118 117 116 115 122 121 123 119 120 124 169 125 126 130 131 132 134 135 133 136 141 143 144 145 146 147 142 140 138 139 154 155 156 157 158 159 160 148 153 161 162 152 149 150 151 163 164 165 166 172 137 129 127 170 128 171 189 190 191 188 187 192 193 186 196 197 198 195 194 179 185 184 180 178 174 173 176 175 177 181 183 182 168 167 48 35 26 27 23 22 24 25 21 20 19 18 17 16 -1
EOF